(set-logic LIA)

(synth-inv inv-f ((d1 Int) (d2 Int) (d3 Int) (conf_0 Int) (x1 Int) (x2 Int) (x3 Int) (d1_0 Int) (d1_1 Int) (d2_0 Int) (d2_1 Int) (d3_0 Int) (d3_1 Int) (conf_0_0 Int) (conf_0_1 Int) (conf_0_2 Int) (conf_0_3 Int) (conf_0_4 Int) (conf_0_5 Int) (x1_0 Int) (x1_1 Int) (x1_2 Int) (x1_3 Int) (x1_4 Int) (x2_0 Int) (x2_1 Int) (x2_2 Int) (x2_3 Int) (x3_0 Int) (x3_1 Int) (x3_2 Int) (x3_3 Int)))

(define-fun pre-f ((d1 Int) (d2 Int) (d3 Int) (conf_0 Int) (x1 Int) (x2 Int) (x3 Int) (d1_0 Int) (d1_1 Int) (d2_0 Int) (d2_1 Int) (d3_0 Int) (d3_1 Int) (conf_0_0 Int) (conf_0_1 Int) (conf_0_2 Int) (conf_0_3 Int) (conf_0_4 Int) (conf_0_5 Int) (x1_0 Int) (x1_1 Int) (x1_2 Int) (x1_3 Int) (x1_4 Int) (x2_0 Int) (x2_1 Int) (x2_2 Int) (x2_3 Int) (x3_0 Int) (x3_1 Int) (x3_2 Int) (x3_3 Int)) Bool
    (and (= d1 d1_1) (= d2 d2_1) (= d3 d3_1) (= conf_0 conf_0_0) (= x1 x1_1) (= conf_0_0 7) (= d1_1 1) (= d2_1 1) (= d3_1 1) (= x1_1 1)))
(define-fun trans-f ((d1 Int) (d2 Int) (d3 Int) (conf_0 Int) (x1 Int) (x2 Int) (x3 Int) (d1_0 Int) (d1_1 Int) (d2_0 Int) (d2_1 Int) (d3_0 Int) (d3_1 Int) (conf_0_0 Int) (conf_0_1 Int) (conf_0_2 Int) (conf_0_3 Int) (conf_0_4 Int) (conf_0_5 Int) (x1_0 Int) (x1_1 Int) (x1_2 Int) (x1_3 Int) (x1_4 Int) (x2_0 Int) (x2_1 Int) (x2_2 Int) (x2_3 Int) (x3_0 Int) (x3_1 Int) (x3_2 Int) (x3_3 Int) (d1! Int) (d2! Int) (d3! Int) (conf_0! Int) (x1! Int) (x2! Int) (x3! Int) (d1_0! Int) (d1_1! Int) (d2_0! Int) (d2_1! Int) (d3_0! Int) (d3_1! Int) (conf_0_0! Int) (conf_0_1! Int) (conf_0_2! Int) (conf_0_3! Int) (conf_0_4! Int) (conf_0_5! Int) (x1_0! Int) (x1_1! Int) (x1_2! Int) (x1_3! Int) (x1_4! Int) (x2_0! Int) (x2_1! Int) (x2_2! Int) (x2_3! Int) (x3_0! Int) (x3_1! Int) (x3_2! Int) (x3_3! Int)) Bool
    (or (and (= conf_0_1 conf_0) (= x1_2 x1) (= x2_1 x2) (= x3_1 x3) (= conf_0_1 conf_0!) (= x1_2 x1!) (= x2_1 x2!) (= x3_1 x3!) (= d1 d1!) (= d2 d2!) (= d3 d3!) (= conf_0 conf_0!) (= x2 x2!) (= x3 x3!)) (and (= conf_0_1 conf_0) (= x1_2 x1) (= x2_1 x2) (= x3_1 x3) (> x1_2 0) (> x2_1 0) (> x3_1 0) (= x1_3 (- x1_2 d1_1)) (= conf_0_2 (- 24 conf_0_1)) (= x2_2 (- x2_1 d2_1)) (= conf_0_3 828) (= x3_2 (- x3_1 d3_1)) (= conf_0_4 (+ conf_0_3 435)) (= conf_0_5 conf_0_4) (= x1_4 x1_3) (= x2_3 x2_2) (= x3_3 x3_2) (= conf_0_5 conf_0!) (= x1_4 x1!) (= x2_3 x2!) (= x3_3 x3!) (= d1 d1_1) (= d1! d1_1) (= d2 d2_1) (= d2! d2_1) (= d3 d3_1) (= d3! d3_1)) (and (= conf_0_1 conf_0) (= x1_2 x1) (= x2_1 x2) (= x3_1 x3) (> x1_2 0) (> x2_1 0) (not (> x3_1 0)) (= conf_0_5 conf_0_1) (= x1_4 x1_2) (= x2_3 x2_1) (= x3_3 x3_1) (= conf_0_5 conf_0!) (= x1_4 x1!) (= x2_3 x2!) (= x3_3 x3!) (= d1 d1_1) (= d1! d1_1) (= d2 d2_1) (= d2! d2_1) (= d3 d3_1) (= d3! d3_1)) (and (= conf_0_1 conf_0) (= x1_2 x1) (= x2_1 x2) (= x3_1 x3) (> x1_2 0) (not (> x2_1 0)) (= conf_0_5 conf_0_1) (= x1_4 x1_2) (= x2_3 x2_1) (= x3_3 x3_1) (= conf_0_5 conf_0!) (= x1_4 x1!) (= x2_3 x2!) (= x3_3 x3!) (= d1 d1_1) (= d1! d1_1) (= d2 d2_1) (= d2! d2_1) (= d3 d3_1) (= d3! d3_1))))
(define-fun post-f ((d1 Int) (d2 Int) (d3 Int) (conf_0 Int) (x1 Int) (x2 Int) (x3 Int) (d1_0 Int) (d1_1 Int) (d2_0 Int) (d2_1 Int) (d3_0 Int) (d3_1 Int) (conf_0_0 Int) (conf_0_1 Int) (conf_0_2 Int) (conf_0_3 Int) (conf_0_4 Int) (conf_0_5 Int) (x1_0 Int) (x1_1 Int) (x1_2 Int) (x1_3 Int) (x1_4 Int) (x2_0 Int) (x2_1 Int) (x2_2 Int) (x2_3 Int) (x3_0 Int) (x3_1 Int) (x3_2 Int) (x3_3 Int)) Bool
    (or (not (and (= d1 d1_1) (= d2 d2_1) (= d3 d3_1) (= conf_0 conf_0_1) (= x1 x1_2) (= x2 x2_1) (= x3 x3_1))) (not (and (not (> x1_2 0)) (not (>= x2_1 0))))))

(inv-constraint inv-f pre-f trans-f post-f)

(check-synth)

